15,8	0,0	6,3	5,5	0,0	0,0	0,0	0,0	0,0	14,7
14,8	11,5	0,0	16,0	5,8	0,0	0,0	8,8	0,0	0,0
0,0	0,0	16,7	0,0	17,8	9,0	0,0	0,0	11,2	0,0
15,9	0,0	19,8	0,0	0,0	0,0	13,8	0,0	0,0	0,0
0,0	8,4	0,0	19,5	15,6	0,0	0,0	17,3	0,0	0,0
0,0	5,4	16,7	0,0	13,0	5,1	0,0	0,0	6,6	0,0
0,0	6,3	0,0	11,9	0,0	0,0	12,1	0,0	0,0	9,3
14,8	0,0	12,7	0,0	0,0	0,0	0,0	0,0	0,0	13,7
0,0	16,1	0,0	16,3	10,4	0,0	0,0	10,7	0,0	0,0
0,0	0,0	6,9	0,0	0,0	16,7	8,3	0,0	0,0	14,1
									
2,9	3,0	4,1	2,9	2,7	4,2	3,1	2,7	3,2	4,5
